\ Model prob_108
\ LP format - for model browsing. Use MPS format to capture full model detail.
Minimize
  10 x_1_2 + 12 x_1_3 + 17 x_1_4 + 34 x_1_5 + 10 x_2_1 + 18 x_2_3 + 8 x_2_4
   + 46 x_2_5 + 12 x_3_1 + 18 x_3_2 + 9 x_3_4 + 27 x_3_5 + 17 x_4_1
   + 8 x_4_2 + 9 x_4_3 + 20 x_4_5 + 34 x_5_1 + 46 x_5_2 + 27 x_5_3
   + 20 x_5_4
Subject To
 R0: - x_1_2 - x_1_3 - x_1_4 - x_1_5 + x_2_1 + x_3_1 + x_4_1 + x_5_1
   >= 185
 R1: x_1_2 + x_1_3 + x_1_4 + x_1_5 <= 115
 R2: x_1_2 - x_2_1 - x_2_3 - x_2_4 - x_2_5 + x_3_2 + x_4_2 + x_5_2 >= 15
 R3: x_2_1 + x_2_3 + x_2_4 + x_2_5 <= 385
 R4: x_1_3 + x_2_3 - x_3_1 - x_3_2 - x_3_4 - x_3_5 + x_4_3 + x_5_3 >= 390
 R5: x_3_1 + x_3_2 + x_3_4 + x_3_5 <= 410
 R6: x_1_4 + x_2_4 + x_3_4 - x_4_1 - x_4_2 - x_4_3 - x_4_5 + x_5_4 >= -280
 R7: x_4_1 + x_4_2 + x_4_3 + x_4_5 <= 480
 R8: x_1_5 + x_2_5 + x_3_5 + x_4_5 - x_5_1 - x_5_2 - x_5_3 - x_5_4 >= -310
 R9: x_5_1 + x_5_2 + x_5_3 + x_5_4 <= 610
Bounds
Generals
 x_1_2 x_1_3 x_1_4 x_1_5 x_2_1 x_2_3 x_2_4 x_2_5 x_3_1 x_3_2 x_3_4 x_3_5 x_4_1
 x_4_2 x_4_3 x_4_5 x_5_1 x_5_2 x_5_3 x_5_4
End
